50
    90    53    43    76    35    28    22    84    21    36    89    97    48    57    65    81    80    65    85    39    48    21    99    17    49    79    75     2    44    83    95    19    61    66    55    37    92    55    70    62    97    65    69    44    99     3    96    72    90    64
     7     4     3    10     9    10     3     3     7     4     2     6     4     7     9     7     2     9     8     5     4     7     7     3    10     6     9     4     5     6     2     4     7     6     9     2    10     2     7     7     2     7     6     4     6    10     5     6    10     8
  1240  2043  3166  3905  1581  2112  2032  2918  3652  3561  1630  2879  1510  3599   931  3082  1707  1035  1815  2865  2987  1849  1612  3402  1666  2100  2260  1938  1552  2561  2849  2659  1194  3719  2733  1854  3796  2274  3136  1807  1450  1249  1205  2007  3181  3474  3701   949  1045  3554
